NAME : tsp_329_sol.txt
COMMENT : OR-Tools Guided Local Search
TYPE : TOUR
DIMENSION : 193
COST : 11084
STATUS : ROUTING_FAIL
GAP : 0.00% (Reference Solution)
TOUR_SECTION
1
5
129
17
177
111
130
14
2
52
92
146
145
112
141
3
62
94
7
91
175
40
77
56
137
133
165
159
47
179
88
183
49
76
192
193
68
98
132
75
169
187
53
153
82
110
13
93
73
190
67
176
25
149
142
29
12
171
9
106
66
168
185
51
164
108
120
140
109
43
63
148
127
70
107
99
191
147
101
100
71
170
64
115
33
113
69
124
122
95
136
48
24
103
105
18
26
143
181
50
28
138
38
45
174
156
37
57
42
167
87
161
10
80
102
184
126
6
72
55
36
34
189
119
65
131
78
59
60
79
160
21
151
61
46
135
83
89
81
27
152
117
144
116
173
154
97
85
32
90
84
128
158
186
74
8
178
44
162
157
54
96
166
139
19
31
22
163
58
123
20
188
39
30
35
4
155
11
23
114
180
134
121
118
182
15
104
172
150
86
16
125
41
-1
